32      4       
15      14      15      12      
0       0       0       0       0       1       2       
9       15      5       1       1       1       3       
4       1       1       3       7       2       4       8       
5       1       5       7       1       1       5       
6       1       5       7       2       2       6       7       
4       5       5       1       1       2       9       12      
5       1       1       6       1       1       10      
10      3       3       3       1       1       9       
4       7       2       2       6       2       11      13      
3       2       4       3       4       2       11      13      
4       6       7       4       1       3       14      15      17      
7       10      6       1       5       3       14      15      17      
5       3       1       5       8       1       14      
2       2       1       1       6       3       16      18      24      
5       1       3       1       1       2       16      24      
3       1       4       1       1       3       19      20      22      
10      11      1       1       7       3       19      20      23      
5       8       10      1       11      3       20      22      23      
10      7       1       9       1       1       21      
5       11      4       9       4       1       25      
8       11      1       7       6       1       25      
5       5       6       5       3       1       25      
5       1       13      1       4       1       25      
3       6       5       1       1       1       25      
1       4       7       1       2       2       26      27      
1       1       3       13      6       2       28      29      
4       2       10      1       1       1       28      
2       2       5       7       7       2       30      31      
9       3       1       11      1       1       30      
6       1       1       15      1       1       32      
8       3       5       7       7       1       32      
0       0       0       0       0       0       
